c Lines that start with a c are comments. There is one line at the start
c which starts with either "p edge" or "p col", followed by the number of
c vertices and the (possibly incorrect) number of edges. The e lines each
c describe an edge. Some files have blank lines.
p edge 9 13
e 1 3
e 1 4
e 1 7
e 1 8
e 2 3
e 3 7
e 3 8
e 4 5
e 4 8
e 5 6
e 5 8
e 7 8
e 8 9
